unknown
(model
; cardinality of BoundSet is 3
(declare-sort BoundSet 0)
; rep: @uc_BoundSet_0
; rep: @uc_BoundSet_1
; rep: @uc_BoundSet_2
; cardinality of UnboundSet is 1
(declare-sort UnboundSet 0)
(declare-fun groundTerm_4 () UnboundSet)
(define-fun Ordered ((BOUND_VARIABLE_383 BoundSet) (BOUND_VARIABLE_384 BoundSet)) Bool true)
(define-fun Killed ((BOUND_VARIABLE_383 BoundSet) (BOUND_VARIABLE_384 BoundSet)) Bool true)
(define-fun IsInPrison ((BOUND_VARIABLE_393 BoundSet)) Bool false)
)
sat
(model
; cardinality of BoundSet is 1
(declare-sort BoundSet 0)
; rep: @uc_BoundSet_0
; cardinality of UnboundSet is 1
(declare-sort UnboundSet 0)
(declare-fun groundTerm_6 () UnboundSet)
(define-fun Ordered ((BOUND_VARIABLE_402 BoundSet) (BOUND_VARIABLE_403 BoundSet)) Bool true)
(define-fun Killed ((BOUND_VARIABLE_402 BoundSet) (BOUND_VARIABLE_403 BoundSet)) Bool true)
(define-fun IsInPrison ((BOUND_VARIABLE_408 BoundSet)) Bool true)
)
